graphs/DSJC250.1.col
p edge 250 3218
e 1 21
e 1 34
e 1 45
e 1 48
e 1 65
e 1 70
e 1 74
e 1 79
e 1 85
e 1 88
e 1 90
e 1 93
e 1 97
e 1 103
e 1 110
e 1 112
e 1 117
e 1 123
e 1 131
e 1 132
e 1 133
e 1 134
e 1 153
e 1 167
e 1 168
e 1 174
e 1 177
e 1 192
e 1 195
e 1 196
e 1 198
e 1 203
e 1 222
e 1 231
e 1 241
e 1 242
e 1 245
e 2 5
e 2 17
e 2 41
e 2 44
e 2 51
e 2 61
e 2 78
e 2 81
e 2 87
e 2 98
e 2 128
e 2 153
e 2 164
e 2 187
e 2 196
e 2 197
e 2 200
e 2 206
e 2 211
e 2 218
e 2 242
e 2 249
e 3 6
e 3 7
e 3 13
e 3 14
e 3 20
e 3 34
e 3 45
e 3 48
e 3 52
e 3 59
e 3 66
e 3 69
e 3 80
e 3 94
e 3 112
e 3 117
e 3 118
e 3 128
e 3 158
e 3 174
e 3 177
e 3 184
e 3 189
e 3 221
e 4 6
e 4 19
e 4 40
e 4 41
e 4 57
e 4 69
e 4 71
e 4 90
e 4 109
e 4 117
e 4 130
e 4 132
e 4 141
e 4 145
e 4 186
e 4 190
e 4 191
e 4 195
e 4 210
e 4 220
e 4 224
e 4 238
e 4 243
e 4 249
e 5 19
e 5 20
e 5 24
e 5 35
e 5 38
e 5 50
e 5 58
e 5 66
e 5 69
e 5 85
e 5 93
e 5 94
e 5 95
e 5 103
e 5 112
e 5 113
e 5 116
e 5 130
e 5 135
e 5 138
e 5 140
e 5 147
e 5 164
e 5 169
e 5 186
e 5 193
e 5 199
e 5 200
e 5 209
e 5 211
e 5 218
e 5 224
e 5 238
e 5 248
e 6 8
e 6 28
e 6 34
e 6 39
e 6 53
e 6 62
e 6 63
e 6 93
e 6 94
e 6 97
e 6 100
e 6 109
e 6 111
e 6 117
e 6 118
e 6 145
e 6 160
e 6 169
e 6 178
e 6 234
e 6 244
e 7 16
e 7 49
e 7 59
e 7 67
e 7 69
e 7 84
e 7 99
e 7 106
e 7 107
e 7 119
e 7 123
e 7 154
e 7 165
e 7 166
e 7 169
e 7 178
e 7 195
e 7 206
e 7 214
e 7 218
e 7 221
e 7 226
e 7 229
e 7 230
e 7 246
e 8 10
e 8 15
e 8 39
e 8 49
e 8 62
e 8 68
e 8 81
e 8 90
e 8 101
e 8 107
e 8 121
e 8 139
e 8 148
e 8 150
e 8 169
e 8 175
e 8 177
e 8 196
e 8 197
e 8 208
e 8 226
e 8 232
e 8 241
e 8 243
e 9 21
e 9 33
e 9 51
e 9 60
e 9 66
e 9 67
e 9 87
e 9 109
e 9 110
e 9 111
e 9 124
e 9 146
e 9 156
e 9 158
e 9 159
e 9 160
e 9 172
e 9 175
e 9 201
e 9 232
e 9 241
e 9 248
e 9 249
e 10 18
e 10 39
e 10 44
e 10 55
e 10 65
e 10 70
e 10 76
e 10 78
e 10 91
e 10 94
e 10 95
e 10 98
e 10 108
e 10 143
e 10 174
e 10 184
e 10 198
e 10 205
e 10 219
e 10 221
e 10 223
e 10 229
e 11 28
e 11 34
e 11 46
e 11 65
e 11 85
e 11 88
e 11 89
e 11 107
e 11 110
e 11 115
e 11 117
e 11 144
e 11 147
e 11 160
e 11 164
e 11 169
e 11 183
e 11 205
e 11 230
e 11 238
e 11 240
e 12 24
e 12 27
e 12 29
e 12 61
e 12 62
e 12 72
e 12 84
e 12 102
e 12 104
e 12 112
e 12 114
e 12 117
e 12 124
e 12 148
e 12 172
e 12 186
e 12 189
e 12 191
e 12 204
e 12 243
e 13 29
e 13 32
e 13 35
e 13 36
e 13 45
e 13 46
e 13 50
e 13 57
e 13 71
e 13 76
e 13 83
e 13 88
e 13 89
e 13 93
e 13 101
e 13 103
e 13 115
e 13 119
e 13 120
e 13 133
e 13 135
e 13 144
e 13 154
e 13 172
e 13 173
e 13 179
e 13 187
e 13 213
e 13 230
e 13 239
e 14 19
e 14 37
e 14 38
e 14 39
e 14 40
e 14 57
e 14 82
e 14 98
e 14 103
e 14 111
e 14 114
e 14 115
e 14 129
e 14 133
e 14 134
e 14 151
e 14 153
e 14 164
e 14 166
e 14 175
e 14 188
e 14 189
e 14 215
e 14 228
e 14 237
e 15 26
e 15 28
e 15 33
e 15 46
e 15 53
e 15 56
e 15 58
e 15 71
e 15 87
e 15 91
e 15 95
e 15 101
e 15 116
e 15 129
e 15 138
e 15 141
e 15 143
e 15 145
e 15 153
e 15 159
e 15 161
e 15 222
e 15 232
e 16 29
e 16 31
e 16 63
e 16 71
e 16 91
e 16 99
e 16 102
e 16 117
e 16 122
e 16 126
e 16 132
e 16 140
e 16 146
e 16 149
e 16 150
e 16 171
e 16 174
e 16 188
e 16 189
e 16 226
e 16 230
e 16 241
e 16 249
e 17 19
e 17 22
e 17 33
e 17 40
e 17 46
e 17 52
e 17 69
e 17 71
e 17 73
e 17 87
e 17 96
e 17 98
e 17 114
e 17 121
e 17 139
e 17 157
e 17 159
e 17 188
e 17 204
e 17 209
e 17 212
e 17 217
e 17 226
e 17 244
e 18 29
e 18 38
e 18 41
e 18 55
e 18 63
e 18 64
e 18 80
e 18 85
e 18 92
e 18 128
e 18 146
e 18 148
e 18 160
e 18 162
e 18 163
e 18 166
e 18 168
e 18 178
e 18 182
e 18 188
e 18 189
e 18 191
e 18 196
e 18 204
e 18 208
e 18 209
e 18 215
e 18 226
e 18 240
e 18 241
e 19 24
e 19 27
e 19 36
e 19 45
e 19 50
e 19 56
e 19 69
e 19 81
e 19 91
e 19 97
e 19 98
e 19 99
e 19 103
e 19 111
e 19 122
e 19 125
e 19 130
e 19 131
e 19 140
e 19 141
e 19 143
e 19 146
e 19 160
e 19 178
e 19 197
e 19 206
e 19 217
e 19 241
e 19 242
e 19 247
e 20 27
e 20 39
e 20 43
e 20 62
e 20 114
e 20 119
e 20 124
e 20 128
e 20 129
e 20 132
e 20 135
e 20 141
e 20 153
e 20 162
e 20 163
e 20 166
e 20 169
e 20 171
e 20 187
e 20 194
e 20 199
e 20 218
e 20 219
e 20 220
e 20 228
e 20 231
e 20 242
e 20 250
e 21 32
e 21 42
e 21 56
e 21 58
e 21 61
e 21 90
e 21 100
e 21 101
e 21 111
e 21 120
e 21 134
e 21 153
e 21 157
e 21 164
e 21 173
e 21 204
e 21 219
e 21 223
e 21 239
e 21 240
e 21 244
e 22 28
e 22 41
e 22 45
e 22 49
e 22 65
e 22 68
e 22 71
e 22 85
e 22 109
e 22 121
e 22 122
e 22 126
e 22 127
e 22 129
e 22 132
e 22 141
e 22 144
e 22 162
e 22 208
e 22 214
e 22 225
e 22 245
e 23 24
e 23 29
e 23 36
e 23 40
e 23 57
e 23 58
e 23 75
e 23 84
e 23 86
e 23 91
e 23 101
e 23 103
e 23 115
e 23 121
e 23 139
e 23 144
e 23 153
e 23 154
e 23 157
e 23 179
e 23 188
e 23 191
e 23 202
e 23 212
e 23 224
e 23 238
e 23 240
e 23 247
e 24 32
e 24 54
e 24 66
e 24 71
e 24 74
e 24 101
e 24 108
e 24 119
e 24 122
e 24 128
e 24 134
e 24 136
e 24 154
e 24 155
e 24 157
e 24 169
e 24 180
e 24 249
e 25 41
e 25 44
e 25 52
e 25 57
e 25 67
e 25 84
e 25 88
e 25 93
e 25 94
e 25 100
e 25 104
e 25 105
e 25 112
e 25 127
e 25 191
e 25 241
e 25 243
e 25 249
e 26 40
e 26 41
e 26 48
e 26 56
e 26 97
e 26 102
e 26 104
e 26 107
e 26 113
e 26 124
e 26 158
e 26 160
e 26 174
e 26 180
e 26 183
e 26 198
e 26 201
e 26 248
e 27 33
e 27 36
e 27 42
e 27 48
e 27 50
e 27 71
e 27 79
e 27 96
e 27 110
e 27 127
e 27 145
e 27 152
e 27 159
e 27 177
e 27 200
e 27 205
e 27 213
e 27 216
e 27 222
e 27 238
e 27 245
e 28 35
e 28 42
e 28 46
e 28 51
e 28 52
e 28 53
e 28 61
e 28 73
e 28 74
e 28 95
e 28 121
e 28 125
e 28 126
e 28 129
e 28 133
e 28 137
e 28 145
e 28 154
e 28 155
e 28 168
e 28 196
e 28 202
e 28 205
e 28 215
e 28 216
e 28 219
e 28 224
e 28 242
e 29 40
e 29 55
e 29 58
e 29 67
e 29 69
e 29 72
e 29 80
e 29 94
e 29 101
e 29 115
e 29 116
e 29 131
e 29 139
e 29 148
e 29 161
e 29 166
e 29 170
e 29 173
e 29 192
e 29 199
e 29 213
e 29 217
e 29 227
e 29 232
e 29 234
e 29 235
e 29 240
e 29 245
e 29 250
e 30 40
e 30 51
e 30 53
e 30 59
e 30 68
e 30 76
e 30 87
e 30 97
e 30 103
e 30 118
e 30 119
e 30 130
e 30 133
e 30 138
e 30 142
e 30 148
e 30 155
e 30 158
e 30 183
e 30 187
e 30 194
e 30 205
e 30 224
e 30 229
e 30 232
e 30 235
e 30 241
e 31 32
e 31 33
e 31 35
e 31 46
e 31 58
e 31 59
e 31 63
e 31 105
e 31 111
e 31 117
e 31 120
e 31 143
e 31 148
e 31 160
e 31 179
e 31 200
e 31 203
e 31 217
e 31 219
e 31 250
e 32 33
e 32 34
e 32 40
e 32 49
e 32 50
e 32 56
e 32 59
e 32 63
e 32 69
e 32 77
e 32 88
e 32 95
e 32 119
e 32 123
e 32 125
e 32 132
e 32 143
e 32 148
e 32 153
e 32 161
e 32 163
e 32 173
e 32 203
e 32 208
e 32 216
e 32 228
e 32 236
e 32 238
e 33 34
e 33 43
e 33 50
e 33 59
e 33 65
e 33 69
e 33 81
e 33 102
e 33 124
e 33 143
e 33 149
e 33 156
e 33 174
e 33 187
e 33 192
e 33 195
e 33 210
e 33 211
e 33 215
e 33 234
e 33 238
e 33 243
e 33 246
e 34 48
e 34 53
e 34 58
e 34 65
e 34 69
e 34 94
e 34 119
e 34 121
e 34 157
e 34 166
e 34 171
e 34 182
e 34 204
e 34 206
e 34 212
e 34 228
e 35 36
e 35 48
e 35 56
e 35 60
e 35 61
e 35 62
e 35 72
e 35 74
e 35 79
e 35 92
e 35 96
e 35 99
e 35 128
e 35 129
e 35 130
e 35 135
e 35 152
e 35 154
e 35 155
e 35 172
e 35 176
e 35 183
e 35 188
e 35 194
e 35 207
e 35 208
e 35 209
e 35 213
e 35 219
e 35 231
e 35 243
e 36 64
e 36 72
e 36 87
e 36 88
e 36 90
e 36 93
e 36 102
e 36 104
e 36 107
e 36 114
e 36 131
e 36 140
e 36 141
e 36 147
e 36 154
e 36 157
e 36 186
e 36 230
e 36 244
e 37 48
e 37 54
e 37 56
e 37 61
e 37 65
e 37 75
e 37 82
e 37 88
e 37 98
e 37 105
e 37 121
e 37 127
e 37 133
e 37 134
e 37 140
e 37 152
e 37 156
e 37 161
e 37 167
e 37 183
e 37 190
e 37 202
e 37 205
e 37 225
e 37 233
e 37 240
e 37 244
e 38 39
e 38 85
e 38 87
e 38 101
e 38 114
e 38 124
e 38 130
e 38 133
e 38 149
e 38 153
e 38 154
e 38 155
e 38 161
e 38 162
e 38 169
e 38 190
e 38 201
e 38 213
e 38 244
e 39 41
e 39 43
e 39 57
e 39 68
e 39 73
e 39 76
e 39 78
e 39 89
e 39 90
e 39 93
e 39 94
e 39 99
e 39 115
e 39 123
e 39 130
e 39 139
e 39 161
e 39 198
e 39 207
e 39 213
e 39 232
e 39 246
e 39 250
e 40 47
e 40 55
e 40 71
e 40 76
e 40 85
e 40 100
e 40 104
e 40 166
e 40 169
e 40 191
e 40 198
e 40 199
e 40 200
e 40 212
e 40 227
e 40 228
e 40 232
e 40 233
e 40 237
e 41 60
e 41 71
e 41 73
e 41 75
e 41 100
e 41 105
e 41 122
e 41 152
e 41 188
e 41 202
e 41 218
e 41 219
e 41 223
e 41 224
e 41 233
e 41 238
e 41 240
e 42 54
e 42 56
e 42 66
e 42 67
e 42 87
e 42 92
e 42 97
e 42 98
e 42 111
e 42 121
e 42 162
e 42 163
e 42 167
e 42 172
e 42 186
e 42 208
e 42 219
e 42 232
e 42 246
e 43 44
e 43 70
e 43 85
e 43 87
e 43 99
e 43 126
e 43 130
e 43 145
e 43 147
e 43 154
e 43 165
e 43 172
e 43 187
e 43 194
e 43 203
e 43 224
e 43 227
e 43 244
e 43 247
e 44 53
e 44 54
e 44 56
e 44 57
e 44 58
e 44 72
e 44 76
e 44 91
e 44 93
e 44 94
e 44 102
e 44 104
e 44 110
e 44 115
e 44 157
e 44 158
e 44 164
e 44 176
e 44 191
e 44 199
e 44 200
e 44 206
e 44 211
e 44 220
e 44 227
e 44 244
e 44 249
e 44 250
e 45 57
e 45 59
e 45 91
e 45 100
e 45 104
e 45 133
e 45 203
e 45 211
e 45 221
e 45 222
e 45 223
e 45 226
e 45 227
e 45 232
e 45 236
e 45 238
e 45 243
e 45 249
e 46 57
e 46 61
e 46 63
e 46 81
e 46 97
e 46 113
e 46 114
e 46 128
e 46 144
e 46 152
e 46 158
e 46 168
e 46 169
e 46 173
e 46 204
e 46 205
e 46 207
e 46 210
e 46 214
e 46 228
e 46 238
e 46 240
e 47 53
e 47 56
e 47 57
e 47 88
e 47 112
e 47 118
e 47 141
e 47 149
e 47 187
e 47 198
e 47 208
e 47 219
e 47 220
e 47 231
e 47 236
e 47 245
e 48 49
e 48 59
e 48 74
e 48 76
e 48 85
e 48 86
e 48 95
e 48 111
e 48 130
e 48 132
e 48 133
e 48 146
e 48 159
e 48 174
e 48 177
e 48 189
e 48 201
e 48 213
e 48 218
e 48 225
e 48 226
e 48 231
e 48 234
e 48 241
e 49 52
e 49 81
e 49 86
e 49 101
e 49 105
e 49 114
e 49 124
e 49 127
e 49 135
e 49 158
e 49 168
e 49 169
e 49 171
e 49 178
e 49 188
e 49 203
e 49 204
e 49 208
e 49 211
e 49 216
e 49 236
e 49 245
e 50 77
e 50 83
e 50 101
e 50 128
e 50 133
e 50 136
e 50 143
e 50 171
e 50 183
e 50 192
e 50 202
e 50 213
e 50 227
e 50 228
e 50 242
e 50 245
e 51 64
e 51 81
e 51 90
e 51 113
e 51 125
e 51 134
e 51 135
e 51 169
e 51 172
e 51 181
e 51 185
e 51 198
e 51 200
e 51 203
e 51 207
e 51 212
e 51 234
e 51 236
e 52 71
e 52 94
e 52 125
e 52 139
e 52 150
e 52 153
e 52 162
e 52 171
e 52 181
e 52 184
e 52 196
e 52 200
e 52 203
e 52 208
e 52 224
e 52 233
e 52 237
e 52 247
e 52 250
e 53 66
e 53 88
e 53 90
e 53 129
e 53 137
e 53 141
e 53 144
e 53 150
e 53 152
e 53 156
e 53 194
e 53 195
e 53 199
e 53 218
e 53 238
e 54 61
e 54 66
e 54 69
e 54 91
e 54 102
e 54 110
e 54 111
e 54 113
e 54 123
e 54 124
e 54 126
e 54 133
e 54 160
e 54 169
e 54 182
e 54 189
e 54 199
e 54 200
e 54 208
e 54 220
e 54 224
e 54 225
e 55 56
e 55 85
e 55 98
e 55 100
e 55 102
e 55 105
e 55 107
e 55 129
e 55 132
e 55 144
e 55 147
e 55 153
e 55 172
e 55 197
e 55 202
e 55 205
e 55 211
e 55 215
e 55 217
e 55 224
e 56 61
e 56 66
e 56 70
e 56 74
e 56 75
e 56 78
e 56 79
e 56 81
e 56 84
e 56 104
e 56 106
e 56 123
e 56 130
e 56 144
e 56 151
e 56 160
e 56 184
e 56 186
e 56 207
e 57 63
e 57 79
e 57 92
e 57 95
e 57 100
e 57 104
e 57 108
e 57 111
e 57 112
e 57 113
e 57 117
e 57 119
e 57 133
e 57 137
e 57 142
e 57 152
e 57 166
e 57 178
e 57 209
e 57 216
e 57 223
e 58 61
e 58 66
e 58 79
e 58 80
e 58 110
e 58 114
e 58 127
e 58 129
e 58 131
e 58 146
e 58 166
e 58 170
e 58 174
e 58 188
e 58 204
e 58 206
e 58 228
e 58 240
e 58 243
e 58 244
e 59 63
e 59 74
e 59 76
e 59 87
e 59 94
e 59 121
e 59 128
e 59 138
e 59 174
e 59 179
e 59 182
e 59 187
e 59 189
e 59 226
e 59 231
e 59 248
e 60 62
e 60 71
e 60 84
e 60 85
e 60 87
e 60 103
e 60 113
e 60 127
e 60 128
e 60 148
e 60 157
e 60 161
e 60 205
e 60 220
e 60 225
e 60 230
e 60 234
e 60 236
e 60 238
e 61 63
e 61 79
e 61 80
e 61 85
e 61 92
e 61 93
e 61 101
e 61 107
e 61 127
e 61 128
e 61 133
e 61 144
e 61 173
e 61 191
e 61 211
e 61 218
e 61 219
e 61 235
e 61 237
e 62 87
e 62 98
e 62 100
e 62 103
e 62 106
e 62 107
e 62 116
e 62 119
e 62 123
e 62 124
e 62 132
e 62 136
e 62 146
e 62 150
e 62 155
e 62 174
e 62 179
e 62 184
e 62 189
e 62 197
e 62 198
e 62 199
e 62 203
e 62 213
e 62 216
e 62 225
e 62 235
e 62 238
e 63 72
e 63 87
e 63 91
e 63 109
e 63 115
e 63 119
e 63 138
e 63 141
e 63 143
e 63 149
e 63 151
e 63 158
e 63 159
e 63 188
e 63 189
e 63 205
e 63 214
e 63 215
e 63 224
e 64 65
e 64 69
e 64 71
e 64 76
e 64 83
e 64 92
e 64 96
e 64 113
e 64 119
e 64 120
e 64 123
e 64 146
e 64 154
e 64 156
e 64 183
e 64 190
e 64 199
e 64 210
e 64 219
e 64 221
e 64 222
e 64 245
e 65 76
e 65 86
e 65 95
e 65 97
e 65 98
e 65 100
e 65 101
e 65 107
e 65 115
e 65 126
e 65 128
e 65 135
e 65 145
e 65 146
e 65 152
e 65 170
e 65 180
e 65 182
e 65 187
e 65 194
e 65 200
e 65 205
e 65 206
e 65 221
e 65 223
e 65 228
e 65 236
e 66 83
e 66 98
e 66 157
e 66 175
e 66 179
e 66 180
e 66 182
e 66 194
e 66 200
e 66 211
e 66 212
e 66 221
e 66 228
e 66 229
e 66 231
e 66 235
e 67 81
e 67 88
e 67 109
e 67 114
e 67 142
e 67 149
e 67 161
e 67 171
e 67 191
e 67 214
e 67 219
e 67 248
e 68 70
e 68 87
e 68 114
e 68 137
e 68 139
e 68 164
e 68 166
e 68 170
e 68 194
e 68 199
e 68 226
e 68 232
e 68 236
e 68 243
e 68 244
e 68 245
e 69 79
e 69 97
e 69 108
e 69 109
e 69 122
e 69 129
e 69 131
e 69 136
e 69 137
e 69 154
e 69 158
e 69 187
e 69 189
e 69 194
e 69 195
e 69 197
e 69 213
e 69 223
e 69 225
e 69 230
e 69 236
e 69 241
e 69 245
e 69 250
e 70 79
e 70 109
e 70 117
e 70 120
e 70 122
e 70 137
e 70 139
e 70 147
e 70 159
e 70 179
e 70 180
e 70 185
e 70 190
e 70 191
e 70 195
e 70 206
e 70 211
e 70 214
e 70 222
e 70 235
e 70 237
e 70 241
e 70 249
e 71 75
e 71 76
e 71 94
e 71 104
e 71 135
e 71 138
e 71 145
e 71 148
e 71 149
e 71 153
e 71 157
e 71 159
e 71 194
e 71 201
e 71 213
e 71 230
e 71 232
e 71 240
e 71 242
e 71 243
e 71 247
e 72 90
e 72 95
e 72 96
e 72 100
e 72 117
e 72 118
e 72 124
e 72 131
e 72 132
e 72 143
e 72 146
e 72 152
e 72 155
e 72 166
e 72 185
e 72 189
e 72 195
e 72 205
e 72 208
e 72 209
e 72 235
e 72 245
e 72 247
e 73 80
e 73 82
e 73 93
e 73 95
e 73 96
e 73 112
e 73 113
e 73 117
e 73 119
e 73 120
e 73 127
e 73 137
e 73 147
e 73 155
e 73 229
e 73 234
e 73 248
e 74 91
e 74 113
e 74 116
e 74 131
e 74 149
e 74 170
e 74 173
e 74 178
e 74 179
e 74 182
e 74 199
e 74 201
e 74 205
e 74 219
e 74 221
e 74 241
e 75 76
e 75 86
e 75 88
e 75 104
e 75 109
e 75 114
e 75 123
e 75 129
e 75 142
e 75 145
e 75 149
e 75 169
e 75 174
e 75 208
e 75 211
e 75 225
e 75 227
e 75 233
e 75 234
e 75 238
e 75 241
e 75 243
e 75 245
e 76 109
e 76 125
e 76 126
e 76 151
e 76 156
e 76 161
e 76 165
e 76 171
e 76 177
e 76 178
e 76 180
e 76 188
e 76 205
e 76 234
e 76 235
e 76 241
e 77 88
e 77 89
e 77 92
e 77 94
e 77 103
e 77 104
e 77 110
e 77 124
e 77 126
e 77 138
e 77 178
e 77 204
e 77 205
e 77 214
e 77 223
e 77 234
e 77 248
e 78 97
e 78 144
e 78 151
e 78 173
e 78 184
e 78 186
e 78 196
e 78 201
e 78 202
e 78 234
e 78 236
e 79 89
e 79 101
e 79 110
e 79 125
e 79 134
e 79 154
e 79 172
e 79 175
e 79 216
e 79 226
e 79 238
e 80 83
e 80 85
e 80 108
e 80 111
e 80 135
e 80 158
e 80 159
e 80 182
e 80 185
e 80 186
e 80 187
e 80 193
e 80 200
e 80 201
e 80 207
e 80 215
e 80 217
e 80 223
e 81 86
e 81 89
e 81 96
e 81 104
e 81 114
e 81 131
e 81 135
e 81 151
e 81 158
e 81 159
e 81 172
e 81 182
e 81 187
e 81 196
e 81 204
e 81 214
e 81 218
e 81 245
e 81 248
e 82 97
e 82 107
e 82 108
e 82 114
e 82 126
e 82 135
e 82 139
e 82 154
e 82 163
e 82 167
e 82 168
e 82 201
e 82 204
e 82 207
e 82 234
e 82 236
e 82 238
e 82 239
e 83 90
e 83 140
e 83 161
e 83 162
e 83 176
e 83 177
e 83 182
e 83 191
e 83 193
e 83 198
e 83 215
e 83 217
e 83 224
e 83 228
e 83 247
e 83 248
e 84 87
e 84 106
e 84 116
e 84 118
e 84 130
e 84 135
e 84 140
e 84 146
e 84 151
e 84 156
e 84 179
e 84 183
e 84 186
e 84 189
e 84 207
e 84 233
e 84 245
e 84 249
e 84 250
e 85 120
e 85 131
e 85 135
e 85 148
e 85 152
e 85 162
e 85 177
e 85 186
e 85 187
e 85 199
e 85 205
e 85 210
e 85 220
e 85 225
e 85 230
e 85 240
e 86 91
e 86 98
e 86 99
e 86 108
e 86 123
e 86 124
e 86 135
e 86 143
e 86 174
e 86 184
e 86 198
e 86 214
e 86 216
e 86 232
e 87 112
e 87 115
e 87 119
e 87 121
e 87 125
e 87 128
e 87 130
e 87 144
e 87 154
e 87 157
e 87 164
e 87 195
e 87 208
e 87 209
e 87 210
e 87 211
e 87 215
e 87 219
e 87 236
e 87 248
e 88 91
e 88 92
e 88 102
e 88 108
e 88 129
e 88 134
e 88 153
e 88 154
e 88 167
e 88 169
e 88 196
e 88 200
e 88 203
e 89 107
e 89 120
e 89 125
e 89 128
e 89 130
e 89 133
e 89 140
e 89 146
e 89 151
e 89 173
e 89 179
e 89 191
e 89 193
e 89 234
e 89 244
e 90 91
e 90 98
e 90 103
e 90 106
e 90 137
e 90 145
e 90 151
e 90 152
e 90 159
e 90 161
e 90 164
e 90 177
e 90 198
e 90 199
e 90 208
e 90 212
e 90 229
e 90 230
e 90 232
e 90 240
e 90 244
e 90 245
e 91 92
e 91 97
e 91 139
e 91 147
e 91 153
e 91 156
e 91 165
e 91 173
e 91 175
e 91 203
e 91 224
e 91 228
e 91 236
e 91 248
e 91 249
e 92 96
e 92 97
e 92 105
e 92 107
e 92 133
e 92 134
e 92 149
e 92 160
e 92 174
e 92 176
e 92 182
e 92 191
e 92 210
e 92 226
e 92 233
e 92 236
e 93 109
e 93 115
e 93 118
e 93 119
e 93 120
e 93 129
e 93 135
e 93 138
e 93 139
e 93 151
e 93 154
e 93 161
e 93 171
e 93 175
e 93 201
e 93 205
e 93 213
e 93 227
e 93 244
e 94 95
e 94 103
e 94 106
e 94 115
e 94 126
e 94 135
e 94 148
e 94 149
e 94 176
e 94 195
e 94 200
e 94 205
e 94 208
e 94 221
e 94 241
e 95 102
e 95 115
e 95 119
e 95 125
e 95 134
e 95 135
e 95 136
e 95 156
e 95 166
e 95 190
e 95 218
e 95 222
e 95 229
e 96 98
e 96 105
e 96 110
e 96 146
e 96 152
e 96 158
e 96 168
e 96 193
e 96 212
e 96 220
e 96 237
e 97 103
e 97 119
e 97 126
e 97 131
e 97 137
e 97 170
e 97 206
e 97 246
e 97 250
e 98 103
e 98 118
e 98 124
e 98 148
e 98 149
e 98 165
e 98 173
e 98 199
e 98 201
e 98 209
e 98 211
e 98 218
e 98 222
e 98 244
e 98 247
e 99 113
e 99 120
e 99 149
e 99 155
e 99 160
e 99 162
e 99 174
e 99 176
e 99 188
e 99 196
e 99 202
e 99 223
e 99 227
e 99 230
e 100 105
e 100 109
e 100 141
e 100 143
e 100 163
e 100 168
e 100 171
e 100 183
e 100 184
e 100 186
e 100 204
e 100 205
e 100 213
e 100 215
e 100 228
e 100 239
e 100 248
e 100 249
e 101 103
e 101 115
e 101 118
e 101 121
e 101 139
e 101 148
e 101 154
e 101 157
e 101 158
e 101 159
e 101 163
e 101 167
e 101 169
e 101 172
e 101 174
e 101 176
e 101 219
e 101 220
e 101 228
e 102 109
e 102 119
e 102 124
e 102 142
e 102 162
e 102 168
e 102 183
e 102 199
e 102 221
e 102 223
e 102 231
e 102 234
e 102 239
e 102 250
e 103 126
e 103 146
e 103 170
e 103 182
e 103 188
e 103 190
e 103 199
e 103 200
e 103 215
e 103 221
e 103 224
e 103 228
e 103 245
e 104 111
e 104 121
e 104 122
e 104 125
e 104 129
e 104 160
e 104 171
e 104 182
e 104 183
e 104 196
e 104 209
e 104 224
e 104 249
e 105 113
e 105 115
e 105 117
e 105 148
e 105 152
e 105 156
e 105 158
e 105 160
e 105 173
e 105 183
e 105 209
e 105 215
e 105 223
e 105 226
e 105 240
e 106 110
e 106 112
e 106 125
e 106 129
e 106 136
e 106 138
e 106 146
e 106 154
e 106 159
e 106 168
e 106 180
e 106 182
e 106 187
e 106 198
e 106 199
e 106 209
e 106 210
e 106 211
e 106 216
e 106 218
e 106 223
e 106 229
e 106 235
e 106 238
e 106 240
e 106 242
e 106 243
e 107 110
e 107 115
e 107 122
e 107 146
e 107 148
e 107 152
e 107 155
e 107 157
e 107 179
e 107 197
e 107 203
e 107 206
e 108 126
e 108 127
e 108 134
e 108 149
e 108 157
e 108 169
e 108 174
e 108 181
e 108 183
e 108 185
e 108 192
e 108 194
e 108 196
e 108 206
e 108 210
e 108 215
e 108 230
e 108 235
e 108 245
e 109 151
e 109 154
e 109 158
e 109 168
e 109 173
e 109 176
e 109 211
e 109 224
e 109 232
e 110 115
e 110 118
e 110 125
e 110 134
e 110 139
e 110 147
e 110 156
e 110 157
e 110 180
e 110 192
e 110 229
e 110 242
e 111 120
e 111 126
e 111 132
e 111 172
e 111 176
e 111 177
e 111 201
e 111 205
e 112 114
e 112 132
e 112 134
e 112 143
e 112 151
e 112 162
e 112 165
e 112 181
e 112 189
e 112 197
e 112 198
e 112 218
e 112 227
e 112 238
e 112 247
e 113 132
e 113 136
e 113 149
e 113 155
e 113 161
e 113 174
e 113 179
e 113 194
e 114 129
e 114 192
e 114 194
e 114 199
e 114 201
e 114 215
e 114 226
e 114 230
e 114 231
e 114 241
e 114 248
e 115 120
e 115 136
e 115 144
e 115 145
e 115 150
e 115 151
e 115 161
e 115 163
e 115 168
e 115 175
e 115 180
e 115 199
e 115 202
e 115 211
e 115 218
e 115 219
e 115 228
e 115 241
e 116 128
e 116 132
e 116 150
e 116 154
e 116 157
e 116 173
e 116 175
e 116 197
e 116 203
e 116 204
e 116 205
e 116 219
e 116 225
e 116 228
e 116 231
e 116 234
e 116 239
e 117 123
e 117 128
e 117 134
e 117 136
e 117 143
e 117 147
e 117 153
e 117 159
e 117 163
e 117 168
e 117 175
e 117 176
e 117 177
e 117 183
e 117 188
e 117 199
e 117 211
e 117 226
e 117 232
e 117 239
e 117 240
e 117 242
e 117 244
e 118 119
e 118 125
e 118 127
e 118 129
e 118 138
e 118 143
e 118 149
e 118 155
e 118 164
e 118 178
e 118 183
e 118 185
e 118 192
e 118 202
e 118 218
e 118 223
e 118 229
e 118 247
e 119 123
e 119 130
e 119 132
e 119 159
e 119 160
e 119 162
e 119 163
e 119 164
e 119 167
e 119 182
e 119 187
e 119 199
e 119 206
e 119 224
e 119 226
e 119 233
e 120 123
e 120 144
e 120 156
e 120 157
e 120 171
e 120 187
e 120 192
e 120 196
e 120 200
e 120 201
e 120 219
e 120 223
e 120 236
e 120 241
e 121 122
e 121 123
e 121 141
e 121 152
e 121 155
e 121 164
e 121 187
e 121 197
e 121 204
e 121 209
e 121 212
e 121 242
e 122 161
e 122 164
e 122 166
e 122 170
e 122 186
e 122 196
e 122 208
e 122 212
e 122 215
e 122 240
e 122 245
e 123 130
e 123 134
e 123 140
e 123 143
e 123 147
e 123 149
e 123 163
e 123 167
e 123 170
e 123 176
e 123 199
e 123 200
e 123 204
e 123 226
e 123 230
e 123 238
e 123 240
e 123 241
e 123 243
e 124 126
e 124 144
e 124 151
e 124 152
e 124 167
e 124 169
e 124 172
e 124 174
e 124 183
e 124 197
e 124 208
e 124 216
e 124 223
e 124 243
e 124 246
e 125 126
e 125 137
e 125 163
e 125 175
e 125 182
e 125 190
e 125 197
e 125 206
e 125 219
e 125 230
e 125 235
e 125 249
e 126 132
e 126 148
e 126 153
e 126 167
e 126 188
e 126 194
e 126 195
e 126 216
e 126 230
e 126 238
e 126 246
e 127 154
e 127 165
e 127 172
e 127 188
e 127 198
e 127 200
e 127 217
e 127 219
e 127 228
e 127 243
e 128 130
e 128 141
e 128 154
e 128 191
e 128 193
e 128 207
e 128 219
e 128 242
e 128 243
e 129 132
e 129 147
e 129 150
e 129 171
e 129 181
e 129 185
e 129 188
e 129 190
e 129 192
e 129 194
e 129 210
e 129 244
e 129 246
e 129 249
e 130 142
e 130 153
e 130 157
e 130 161
e 130 169
e 130 176
e 130 201
e 130 215
e 130 232
e 131 136
e 131 149
e 131 179
e 131 181
e 131 206
e 131 210
e 131 215
e 131 242
e 132 150
e 132 154
e 132 164
e 132 166
e 132 201
e 132 206
e 132 217
e 132 246
e 132 250
e 133 149
e 133 153
e 133 178
e 133 203
e 133 214
e 133 222
e 133 224
e 133 232
e 133 235
e 133 245
e 134 146
e 134 147
e 134 148
e 134 158
e 134 160
e 134 161
e 134 175
e 134 185
e 134 188
e 134 212
e 134 228
e 134 234
e 134 245
e 134 249
e 135 144
e 135 152
e 135 159
e 135 167
e 135 171
e 135 196
e 135 197
e 135 210
e 135 213
e 135 214
e 135 223
e 135 234
e 135 239
e 135 247
e 136 146
e 136 152
e 136 177
e 136 180
e 136 189
e 136 211
e 136 221
e 136 225
e 136 231
e 136 248
e 137 139
e 137 143
e 137 144
e 137 151
e 137 152
e 137 156
e 137 171
e 137 179
e 137 185
e 137 186
e 137 202
e 137 203
e 137 214
e 137 215
e 137 230
e 137 250
e 138 171
e 138 179
e 138 182
e 138 190
e 138 191
e 138 206
e 138 231
e 138 237
e 138 239
e 138 250
e 139 144
e 139 149
e 139 155
e 139 157
e 139 171
e 139 179
e 139 190
e 139 193
e 139 197
e 139 205
e 139 223
e 139 238
e 139 240
e 140 141
e 140 161
e 140 171
e 140 174
e 140 182
e 140 197
e 140 204
e 140 235
e 140 245
e 141 144
e 141 157
e 141 158
e 141 176
e 141 179
e 141 184
e 141 189
e 141 197
e 141 206
e 141 227
e 141 240
e 142 149
e 142 190
e 142 192
e 142 193
e 142 201
e 142 224
e 142 227
e 142 248
e 143 165
e 143 168
e 143 176
e 143 180
e 143 195
e 143 196
e 143 197
e 143 208
e 143 215
e 143 220
e 143 238
e 143 239
e 144 151
e 144 152
e 144 153
e 144 159
e 144 180
e 144 206
e 144 213
e 144 224
e 144 236
e 144 245
e 144 248
e 145 150
e 145 155
e 145 172
e 145 177
e 145 183
e 145 187
e 145 197
e 145 203
e 145 205
e 145 219
e 145 228
e 146 154
e 146 165
e 146 191
e 146 192
e 146 202
e 146 212
e 146 221
e 146 229
e 146 231
e 146 235
e 146 241
e 147 151
e 147 152
e 147 156
e 147 160
e 147 166
e 147 175
e 147 183
e 147 184
e 147 198
e 147 220
e 147 222
e 147 228
e 147 238
e 147 241
e 147 247
e 148 166
e 148 167
e 148 172
e 148 209
e 148 228
e 149 160
e 149 164
e 149 180
e 149 181
e 149 187
e 150 153
e 150 165
e 150 183
e 150 206
e 150 207
e 150 214
e 150 222
e 150 223
e 150 230
e 150 232
e 150 238
e 150 241
e 150 245
e 150 250
e 151 152
e 151 164
e 151 175
e 151 178
e 151 179
e 151 181
e 151 186
e 151 193
e 151 221
e 151 225
e 151 231
e 151 244
e 152 168
e 152 169
e 152 173
e 152 191
e 152 195
e 152 219
e 152 227
e 152 235
e 153 154
e 153 156
e 153 171
e 153 173
e 153 176
e 153 180
e 153 181
e 153 189
e 153 195
e 153 210
e 153 212
e 153 238
e 153 239
e 153 244
e 153 248
e 154 167
e 154 191
e 154 193
e 154 205
e 154 212
e 154 219
e 154 226
e 154 227
e 154 231
e 154 235
e 154 240
e 154 249
e 155 157
e 155 161
e 155 169
e 155 181
e 155 197
e 155 236
e 155 240
e 155 243
e 155 247
e 156 158
e 156 164
e 156 167
e 156 170
e 156 171
e 156 186
e 156 187
e 156 189
e 156 191
e 156 192
e 156 200
e 156 204
e 156 208
e 156 229
e 156 237
e 156 239
e 156 243
e 156 244
e 157 158
e 157 162
e 157 164
e 157 166
e 157 197
e 157 199
e 157 207
e 157 209
e 157 221
e 157 225
e 157 248
e 158 163
e 158 167
e 158 179
e 158 183
e 158 186
e 158 189
e 158 196
e 158 197
e 158 208
e 158 225
e 158 235
e 159 167
e 159 168
e 159 170
e 159 182
e 159 189
e 159 201
e 159 204
e 159 212
e 159 218
e 159 224
e 159 225
e 159 234
e 159 235
e 159 238
e 159 240
e 159 245
e 159 247
e 159 250
e 160 163
e 160 181
e 160 182
e 160 190
e 160 195
e 160 224
e 160 226
e 160 228
e 161 172
e 161 181
e 161 192
e 161 203
e 161 204
e 161 208
e 161 212
e 161 217
e 161 221
e 161 227
e 161 231
e 161 236
e 161 242
e 161 244
e 162 164
e 162 175
e 162 186
e 162 188
e 162 217
e 162 238
e 162 239
e 162 241
e 162 244
e 162 246
e 162 247
e 162 250
e 163 188
e 163 198
e 163 212
e 163 217
e 163 229
e 163 249
e 164 175
e 164 179
e 164 182
e 164 186
e 164 190
e 164 204
e 164 206
e 164 217
e 164 223
e 164 230
e 164 235
e 164 241
e 164 246
e 165 168
e 165 196
e 165 232
e 165 235
e 165 245
e 165 249
e 166 178
e 166 184
e 166 198
e 166 204
e 166 206
e 166 212
e 166 222
e 166 230
e 166 240
e 166 245
e 166 248
e 166 249
e 167 198
e 167 200
e 168 170
e 168 180
e 168 182
e 168 198
e 168 210
e 168 213
e 168 236
e 169 174
e 169 189
e 169 190
e 169 210
e 169 217
e 169 220
e 169 228
e 169 233
e 169 244
e 169 250
e 170 172
e 170 176
e 170 186
e 170 236
e 171 177
e 171 211
e 171 212
e 171 229
e 171 234
e 171 235
e 171 237
e 171 243
e 171 247
e 172 183
e 172 193
e 172 204
e 172 209
e 172 213
e 172 229
e 172 232
e 172 236
e 172 247
e 173 183
e 173 189
e 173 212
e 173 222
e 173 232
e 173 250
e 174 177
e 174 184
e 174 195
e 174 204
e 174 214
e 174 218
e 174 219
e 174 234
e 174 240
e 175 204
e 175 215
e 175 216
e 175 237
e 176 177
e 176 194
e 176 207
e 176 228
e 176 237
e 176 238
e 176 242
e 177 189
e 177 193
e 177 201
e 177 220
e 177 228
e 177 232
e 177 238
e 177 241
e 177 247
e 178 195
e 178 199
e 179 184
e 179 193
e 179 212
e 179 216
e 179 242
e 179 245
e 180 198
e 180 234
e 181 189
e 181 209
e 181 210
e 181 237
e 181 238
e 182 183
e 182 191
e 182 203
e 182 206
e 182 213
e 182 217
e 182 219
e 182 225
e 182 232
e 182 234
e 182 236
e 182 240
e 182 249
e 183 189
e 183 195
e 183 203
e 183 218
e 183 235
e 183 236
e 183 240
e 183 248
e 184 224
e 184 237
e 184 241
e 185 188
e 185 205
e 185 214
e 185 231
e 186 195
e 186 217
e 186 233
e 186 238
e 187 191
e 187 225
e 187 233
e 187 236
e 187 239
e 187 240
e 187 242
e 187 245
e 187 250
e 188 193
e 188 198
e 188 210
e 188 221
e 188 225
e 188 247
e 189 203
e 189 220
e 189 227
e 189 232
e 190 214
e 190 218
e 190 225
e 190 240
e 190 242
e 190 248
e 191 198
e 191 205
e 191 209
e 192 199
e 192 201
e 192 236
e 192 244
e 193 198
e 193 231
e 193 236
e 194 206
e 194 214
e 194 220
e 194 237
e 195 200
e 195 203
e 195 206
e 195 208
e 195 210
e 195 217
e 195 240
e 195 248
e 196 200
e 196 206
e 196 213
e 196 222
e 196 223
e 196 236
e 196 238
e 196 242
e 196 244
e 196 249
e 197 202
e 197 204
e 197 211
e 197 215
e 197 233
e 197 247
e 197 250
e 198 199
e 198 210
e 198 223
e 198 232
e 198 242
e 198 245
e 198 246
e 199 205
e 199 210
e 199 225
e 199 242
e 200 203
e 200 208
e 200 214
e 200 217
e 200 230
e 200 243
e 201 202
e 201 207
e 201 208
e 201 219
e 201 241
e 201 242
e 201 243
e 202 221
e 202 226
e 202 232
e 203 215
e 203 223
e 203 227
e 203 230
e 203 232
e 203 235
e 203 237
e 204 208
e 204 214
e 204 234
e 204 238
e 204 241
e 205 221
e 205 228
e 205 245
e 205 247
e 205 248
e 206 214
e 206 219
e 206 222
e 206 238
e 206 241
e 206 244
e 207 222
e 207 233
e 207 234
e 207 239
e 207 242
e 208 250
e 209 215
e 209 217
e 209 219
e 209 234
e 209 236
e 209 245
e 209 249
e 210 216
e 210 223
e 210 231
e 210 232
e 210 233
e 210 236
e 211 219
e 211 224
e 211 225
e 211 247
e 211 248
e 212 224
e 212 244
e 213 220
e 213 224
e 213 225
e 213 233
e 213 238
e 213 241
e 213 242
e 213 244
e 213 245
e 214 223
e 214 241
e 214 249
e 215 222
e 215 234
e 215 235
e 215 249
e 215 250
e 216 232
e 216 237
e 217 220
e 217 227
e 217 229
e 217 245
e 217 247
e 218 237
e 218 243
e 220 230
e 220 233
e 220 235
e 220 238
e 220 247
e 221 237
e 221 241
e 222 229
e 222 242
e 222 243
e 222 245
e 223 234
e 223 238
e 223 243
e 223 249
e 224 235
e 225 230
e 225 234
e 225 247
e 226 227
e 226 236
e 226 240
e 226 247
e 227 233
e 227 235
e 228 243
e 229 236
e 229 237
e 230 237
e 230 241
e 230 242
e 231 237
e 231 240
e 231 241
e 231 243
e 233 240
e 233 241
e 234 237
e 234 242
e 235 238
e 235 248
e 235 250
e 236 248
e 237 241
e 237 249
e 239 244
e 240 243
e 240 246
e 240 250
e 242 246
e 243 249
e 246 248
e 248 249
e 249 250
