results/gccdcl_results/DSJC250.1.col.out
[options] GC configuration
[options] cmdline =  ./gc graphs/DSJC250.1.col
[options] Instance file = graphs/DSJC250.1.col
[options] Clause learning = 1
[options] Polarity policy = 0
[options] Clique ordering = 3
[options]  ... low degree = 0
[options] Color variables = absent
[options] Bound policy    = 2
[options] Adaptive bounds = 1
[options] Preprocessing   = dense
[options] IS constraints  = 0
[options] fillin          = no
[options] Triangle UP     = 0
[options] Branching strat = Brelaz
[options]  ... low degree = 0
[options]  ... brelaz fst = 0
[options]  ... phase save = 0
[options] Strategy        = branch and bound

[reading] #vertices = 250,  #edges = 3218,  density = 10.339% at 0.001695
[statistics] lb ub clq iter core time conflicts moves memory

[data] lb = 0   | ub = 12  | clq = 0   | iter = 0   | core = 0   | time = 0.0001   | conflicts = 0       | moves = 0         | memory = 0       
[data] lb = 4   | ub = 12  | clq = 0   | iter = 0   | core = 0   | time = 0.0003   | conflicts = 0       | moves = 0         | memory = 0       
[data] lb = 4   | ub = 10  | clq = 0   | iter = 0   | core = 0   | time = 0.0063   | conflicts = 0       | moves = 0         | memory = 0       
[preprocessing] finished at 0.0080
[modeling] preprocessed graph: #vertices = 250,  #edges = 3218,  density = 10.3390%
#vertices = 250,  #edges = 3218,  density = 10.3390%
[data] lb = 4   | ub = 9   | clq = 70  | iter = 0   | core = 0   | time = 0.3440   | conflicts = 1339    | moves = 0         | memory = 0       
